p cnf 297 892
11 16 0 
-11 -16 0 
-11 -238 210 0 
-11 -238 24 0 
-118 -239 213 0 
-118 -239 28 0 
-123 -240 216 0 
-123 -240 32 0 
-128 -241 219 0 
-128 -241 36 0 
-133 -242 222 0 
-133 -242 40 0 
-138 -243 225 0 
-138 -243 44 0 
-143 -244 228 0 
-143 -244 48 0 
-148 -245 231 0 
-148 -245 52 0 
-153 -246 234 0 
-153 -246 56 0 
-158 -247 237 0 
-158 -247 60 0 
-16 -248 210 0 
-16 -248 61 0 
-164 -249 213 0 
-164 -249 65 0 
-169 -250 216 0 
-169 -250 69 0 
-174 -251 219 0 
-174 -251 73 0 
-179 -252 222 0 
-179 -252 77 0 
-184 -253 225 0 
-184 -253 81 0 
-189 -254 228 0 
-189 -254 85 0 
-194 -255 231 0 
-194 -255 89 0 
-199 -256 234 0 
-199 -256 93 0 
-204 -257 237 0 
-204 -257 97 0 
-11 -9 -258 24 0 
-11 -9 -258 118 0 
-11 -9 -258 -118 0 
-118 -98 -259 28 0 
-118 -98 -259 123 0 
-118 -98 -259 -123 0 
-123 -99 -260 32 0 
-123 -99 -260 128 0 
-123 -99 -260 -128 0 
-128 -100 -261 36 0 
-128 -100 -261 133 0 
-128 -100 -261 -133 0 
-133 -101 -262 40 0 
-133 -101 -262 138 0 
-133 -101 -262 -138 0 
-138 -102 -263 44 0 
-138 -102 -263 143 0 
-138 -102 -263 -143 0 
-143 -103 -264 48 0 
-143 -103 -264 148 0 
-143 -103 -264 -148 0 
-148 -104 -265 52 0 
-148 -104 -265 153 0 
-148 -104 -265 -153 0 
-153 -105 -266 56 0 
-153 -105 -266 158 0 
-153 -105 -266 -158 0 
-158 -106 -267 60 0 
-158 -106 -267 163 0 
-158 -106 -267 -163 0 
-11 -268 61 0 
-11 -268 164 0 
-11 -268 -118 0 
-118 -269 65 0 
-118 -269 169 0 
-118 -269 -123 0 
-123 -270 69 0 
-123 -270 174 0 
-123 -270 -128 0 
-128 -271 73 0 
-128 -271 179 0 
-128 -271 -133 0 
-133 -272 77 0 
-133 -272 184 0 
-133 -272 -138 0 
-138 -273 81 0 
-138 -273 189 0 
-138 -273 -143 0 
-143 -274 85 0 
-143 -274 194 0 
-143 -274 -148 0 
-148 -275 89 0 
-148 -275 199 0 
-148 -275 -153 0 
-153 -276 93 0 
-153 -276 204 0 
-153 -276 -158 0 
-158 -277 97 0 
-158 -277 209 0 
-158 -277 -163 0 
-16 -278 24 0 
-16 -278 118 0 
-16 -278 -164 0 
-164 -279 28 0 
-164 -279 123 0 
-164 -279 -169 0 
-169 -280 32 0 
-169 -280 128 0 
-169 -280 -174 0 
-174 -281 36 0 
-174 -281 133 0 
-174 -281 -179 0 
-179 -282 40 0 
-179 -282 138 0 
-179 -282 -184 0 
-184 -283 44 0 
-184 -283 143 0 
-184 -283 -189 0 
-189 -284 48 0 
-189 -284 148 0 
-189 -284 -194 0 
-194 -285 52 0 
-194 -285 153 0 
-194 -285 -199 0 
-199 -286 56 0 
-199 -286 158 0 
-199 -286 -204 0 
-204 -287 60 0 
-204 -287 163 0 
-204 -287 -209 0 
-16 -10 -288 61 0 
-16 -10 -288 164 0 
-16 -10 -288 -164 0 
-164 -108 -289 65 0 
-164 -108 -289 169 0 
-164 -108 -289 -169 0 
-169 -109 -290 69 0 
-169 -109 -290 174 0 
-169 -109 -290 -174 0 
-174 -110 -291 73 0 
-174 -110 -291 179 0 
-174 -110 -291 -179 0 
-179 -111 -292 77 0 
-179 -111 -292 184 0 
-179 -111 -292 -184 0 
-184 -112 -293 81 0 
-184 -112 -293 189 0 
-184 -112 -293 -189 0 
-189 -113 -294 85 0 
-189 -113 -294 194 0 
-189 -113 -294 -194 0 
-194 -114 -295 89 0 
-194 -114 -295 199 0 
-194 -114 -295 -199 0 
-199 -115 -296 93 0 
-199 -115 -296 204 0 
-199 -115 -296 -204 0 
-204 -116 -297 97 0 
-204 -116 -297 209 0 
-204 -116 -297 -209 0 
-1 24 0 
-11 -238 2 0 
-2 11 0 
-2 238 0 
-11 -9 -258 3 0 
-3 11 0 
-3 9 0 
-3 258 0 
-16 -278 4 0 
-4 16 0 
-4 278 0 
2 3 4 1 -24 0 
-24 28 0 
-118 -239 25 0 
-25 118 0 
-25 239 0 
-118 -98 -259 26 0 
-26 118 0 
-26 98 0 
-26 259 0 
-164 -279 27 0 
-27 164 0 
-27 279 0 
25 26 27 24 -28 0 
-28 32 0 
-123 -240 29 0 
-29 123 0 
-29 240 0 
-123 -99 -260 30 0 
-30 123 0 
-30 99 0 
-30 260 0 
-169 -280 31 0 
-31 169 0 
-31 280 0 
29 30 31 28 -32 0 
-32 36 0 
-128 -241 33 0 
-33 128 0 
-33 241 0 
-128 -100 -261 34 0 
-34 128 0 
-34 100 0 
-34 261 0 
-174 -281 35 0 
-35 174 0 
-35 281 0 
33 34 35 32 -36 0 
-36 40 0 
-133 -242 37 0 
-37 133 0 
-37 242 0 
-133 -101 -262 38 0 
-38 133 0 
-38 101 0 
-38 262 0 
-179 -282 39 0 
-39 179 0 
-39 282 0 
37 38 39 36 -40 0 
-40 44 0 
-138 -243 41 0 
-41 138 0 
-41 243 0 
-138 -102 -263 42 0 
-42 138 0 
-42 102 0 
-42 263 0 
-184 -283 43 0 
-43 184 0 
-43 283 0 
41 42 43 40 -44 0 
-44 48 0 
-143 -244 45 0 
-45 143 0 
-45 244 0 
-143 -103 -264 46 0 
-46 143 0 
-46 103 0 
-46 264 0 
-189 -284 47 0 
-47 189 0 
-47 284 0 
45 46 47 44 -48 0 
-48 52 0 
-148 -245 49 0 
-49 148 0 
-49 245 0 
-148 -104 -265 50 0 
-50 148 0 
-50 104 0 
-50 265 0 
-194 -285 51 0 
-51 194 0 
-51 285 0 
49 50 51 48 -52 0 
-52 56 0 
-153 -246 53 0 
-53 153 0 
-53 246 0 
-153 -105 -266 54 0 
-54 153 0 
-54 105 0 
-54 266 0 
-199 -286 55 0 
-55 199 0 
-55 286 0 
53 54 55 52 -56 0 
-56 60 0 
-158 -247 57 0 
-57 158 0 
-57 247 0 
-158 -106 -267 58 0 
-58 158 0 
-58 106 0 
-58 267 0 
-204 -287 59 0 
-59 204 0 
-59 287 0 
57 58 59 56 -60 0 
-5 61 0 
-16 -248 6 0 
-6 16 0 
-6 248 0 
-11 -268 7 0 
-7 11 0 
-7 268 0 
-16 -10 -288 8 0 
-8 16 0 
-8 10 0 
-8 288 0 
6 7 8 5 -61 0 
-61 65 0 
-164 -249 62 0 
-62 164 0 
-62 249 0 
-118 -269 63 0 
-63 118 0 
-63 269 0 
-164 -108 -289 64 0 
-64 164 0 
-64 108 0 
-64 289 0 
62 63 64 61 -65 0 
-65 69 0 
-169 -250 66 0 
-66 169 0 
-66 250 0 
-123 -270 67 0 
-67 123 0 
-67 270 0 
-169 -109 -290 68 0 
-68 169 0 
-68 109 0 
-68 290 0 
66 67 68 65 -69 0 
-69 73 0 
-174 -251 70 0 
-70 174 0 
-70 251 0 
-128 -271 71 0 
-71 128 0 
-71 271 0 
-174 -110 -291 72 0 
-72 174 0 
-72 110 0 
-72 291 0 
70 71 72 69 -73 0 
-73 77 0 
-179 -252 74 0 
-74 179 0 
-74 252 0 
-133 -272 75 0 
-75 133 0 
-75 272 0 
-179 -111 -292 76 0 
-76 179 0 
-76 111 0 
-76 292 0 
74 75 76 73 -77 0 
-77 81 0 
-184 -253 78 0 
-78 184 0 
-78 253 0 
-138 -273 79 0 
-79 138 0 
-79 273 0 
-184 -112 -293 80 0 
-80 184 0 
-80 112 0 
-80 293 0 
78 79 80 77 -81 0 
-81 85 0 
-189 -254 82 0 
-82 189 0 
-82 254 0 
-143 -274 83 0 
-83 143 0 
-83 274 0 
-189 -113 -294 84 0 
-84 189 0 
-84 113 0 
-84 294 0 
82 83 84 81 -85 0 
-85 89 0 
-194 -255 86 0 
-86 194 0 
-86 255 0 
-148 -275 87 0 
-87 148 0 
-87 275 0 
-194 -114 -295 88 0 
-88 194 0 
-88 114 0 
-88 295 0 
86 87 88 85 -89 0 
-89 93 0 
-199 -256 90 0 
-90 199 0 
-90 256 0 
-153 -276 91 0 
-91 153 0 
-91 276 0 
-199 -115 -296 92 0 
-92 199 0 
-92 115 0 
-92 296 0 
90 91 92 89 -93 0 
-93 97 0 
-204 -257 94 0 
-94 204 0 
-94 257 0 
-158 -277 95 0 
-95 158 0 
-95 277 0 
-204 -116 -297 96 0 
-96 204 0 
-96 116 0 
-96 297 0 
94 95 96 93 -97 0 
-9 98 0 
9 -98 0 
-98 99 0 
98 -99 0 
-99 100 0 
99 -100 0 
-100 101 0 
100 -101 0 
-101 102 0 
101 -102 0 
-102 103 0 
102 -103 0 
-103 104 0 
103 -104 0 
-104 105 0 
104 -105 0 
-105 106 0 
105 -106 0 
-106 107 0 
106 -107 0 
-10 108 0 
10 -108 0 
-108 109 0 
108 -109 0 
-109 110 0 
109 -110 0 
-110 111 0 
110 -111 0 
-111 112 0 
111 -112 0 
-112 113 0 
112 -113 0 
-113 114 0 
113 -114 0 
-114 115 0 
114 -115 0 
-115 116 0 
115 -116 0 
-116 117 0 
116 -117 0 
-11 -9 -258 12 0 
-12 11 0 
-12 9 0 
-12 258 0 
-11 -268 13 0 
-13 11 0 
-13 268 0 
12 13 -11 118 0 
-11 -9 -258 14 0 
-14 11 0 
-14 9 0 
-14 258 0 
-16 -278 15 0 
-15 16 0 
-15 278 0 
14 15 11 -118 0 
-118 -98 -259 119 0 
-119 118 0 
-119 98 0 
-119 259 0 
-118 -269 120 0 
-120 118 0 
-120 269 0 
119 120 -118 123 0 
-118 -98 -259 121 0 
-121 118 0 
-121 98 0 
-121 259 0 
-164 -279 122 0 
-122 164 0 
-122 279 0 
121 122 118 -123 0 
-123 -99 -260 124 0 
-124 123 0 
-124 99 0 
-124 260 0 
-123 -270 125 0 
-125 123 0 
-125 270 0 
124 125 -123 128 0 
-123 -99 -260 126 0 
-126 123 0 
-126 99 0 
-126 260 0 
-169 -280 127 0 
-127 169 0 
-127 280 0 
126 127 123 -128 0 
-128 -100 -261 129 0 
-129 128 0 
-129 100 0 
-129 261 0 
-128 -271 130 0 
-130 128 0 
-130 271 0 
129 130 -128 133 0 
-128 -100 -261 131 0 
-131 128 0 
-131 100 0 
-131 261 0 
-174 -281 132 0 
-132 174 0 
-132 281 0 
131 132 128 -133 0 
-133 -101 -262 134 0 
-134 133 0 
-134 101 0 
-134 262 0 
-133 -272 135 0 
-135 133 0 
-135 272 0 
134 135 -133 138 0 
-133 -101 -262 136 0 
-136 133 0 
-136 101 0 
-136 262 0 
-179 -282 137 0 
-137 179 0 
-137 282 0 
136 137 133 -138 0 
-138 -102 -263 139 0 
-139 138 0 
-139 102 0 
-139 263 0 
-138 -273 140 0 
-140 138 0 
-140 273 0 
139 140 -138 143 0 
-138 -102 -263 141 0 
-141 138 0 
-141 102 0 
-141 263 0 
-184 -283 142 0 
-142 184 0 
-142 283 0 
141 142 138 -143 0 
-143 -103 -264 144 0 
-144 143 0 
-144 103 0 
-144 264 0 
-143 -274 145 0 
-145 143 0 
-145 274 0 
144 145 -143 148 0 
-143 -103 -264 146 0 
-146 143 0 
-146 103 0 
-146 264 0 
-189 -284 147 0 
-147 189 0 
-147 284 0 
146 147 143 -148 0 
-148 -104 -265 149 0 
-149 148 0 
-149 104 0 
-149 265 0 
-148 -275 150 0 
-150 148 0 
-150 275 0 
149 150 -148 153 0 
-148 -104 -265 151 0 
-151 148 0 
-151 104 0 
-151 265 0 
-194 -285 152 0 
-152 194 0 
-152 285 0 
151 152 148 -153 0 
-153 -105 -266 154 0 
-154 153 0 
-154 105 0 
-154 266 0 
-153 -276 155 0 
-155 153 0 
-155 276 0 
154 155 -153 158 0 
-153 -105 -266 156 0 
-156 153 0 
-156 105 0 
-156 266 0 
-199 -286 157 0 
-157 199 0 
-157 286 0 
156 157 153 -158 0 
-158 -106 -267 159 0 
-159 158 0 
-159 106 0 
-159 267 0 
-158 -277 160 0 
-160 158 0 
-160 277 0 
159 160 -158 163 0 
-158 -106 -267 161 0 
-161 158 0 
-161 106 0 
-161 267 0 
-204 -287 162 0 
-162 204 0 
-162 287 0 
161 162 158 -163 0 
-16 -278 17 0 
-17 16 0 
-17 278 0 
-16 -10 -288 18 0 
-18 16 0 
-18 10 0 
-18 288 0 
17 18 -16 164 0 
-11 -268 19 0 
-19 11 0 
-19 268 0 
-16 -10 -288 20 0 
-20 16 0 
-20 10 0 
-20 288 0 
19 20 16 -164 0 
-164 -279 165 0 
-165 164 0 
-165 279 0 
-164 -108 -289 166 0 
-166 164 0 
-166 108 0 
-166 289 0 
165 166 -164 169 0 
-118 -269 167 0 
-167 118 0 
-167 269 0 
-164 -108 -289 168 0 
-168 164 0 
-168 108 0 
-168 289 0 
167 168 164 -169 0 
-169 -280 170 0 
-170 169 0 
-170 280 0 
-169 -109 -290 171 0 
-171 169 0 
-171 109 0 
-171 290 0 
170 171 -169 174 0 
-123 -270 172 0 
-172 123 0 
-172 270 0 
-169 -109 -290 173 0 
-173 169 0 
-173 109 0 
-173 290 0 
172 173 169 -174 0 
-174 -281 175 0 
-175 174 0 
-175 281 0 
-174 -110 -291 176 0 
-176 174 0 
-176 110 0 
-176 291 0 
175 176 -174 179 0 
-128 -271 177 0 
-177 128 0 
-177 271 0 
-174 -110 -291 178 0 
-178 174 0 
-178 110 0 
-178 291 0 
177 178 174 -179 0 
-179 -282 180 0 
-180 179 0 
-180 282 0 
-179 -111 -292 181 0 
-181 179 0 
-181 111 0 
-181 292 0 
180 181 -179 184 0 
-133 -272 182 0 
-182 133 0 
-182 272 0 
-179 -111 -292 183 0 
-183 179 0 
-183 111 0 
-183 292 0 
182 183 179 -184 0 
-184 -283 185 0 
-185 184 0 
-185 283 0 
-184 -112 -293 186 0 
-186 184 0 
-186 112 0 
-186 293 0 
185 186 -184 189 0 
-138 -273 187 0 
-187 138 0 
-187 273 0 
-184 -112 -293 188 0 
-188 184 0 
-188 112 0 
-188 293 0 
187 188 184 -189 0 
-189 -284 190 0 
-190 189 0 
-190 284 0 
-189 -113 -294 191 0 
-191 189 0 
-191 113 0 
-191 294 0 
190 191 -189 194 0 
-143 -274 192 0 
-192 143 0 
-192 274 0 
-189 -113 -294 193 0 
-193 189 0 
-193 113 0 
-193 294 0 
192 193 189 -194 0 
-194 -285 195 0 
-195 194 0 
-195 285 0 
-194 -114 -295 196 0 
-196 194 0 
-196 114 0 
-196 295 0 
195 196 -194 199 0 
-148 -275 197 0 
-197 148 0 
-197 275 0 
-194 -114 -295 198 0 
-198 194 0 
-198 114 0 
-198 295 0 
197 198 194 -199 0 
-199 -286 200 0 
-200 199 0 
-200 286 0 
-199 -115 -296 201 0 
-201 199 0 
-201 115 0 
-201 296 0 
200 201 -199 204 0 
-153 -276 202 0 
-202 153 0 
-202 276 0 
-199 -115 -296 203 0 
-203 199 0 
-203 115 0 
-203 296 0 
202 203 199 -204 0 
-204 -287 205 0 
-205 204 0 
-205 287 0 
-204 -116 -297 206 0 
-206 204 0 
-206 116 0 
-206 297 0 
205 206 -204 209 0 
-158 -277 207 0 
-207 158 0 
-207 277 0 
-204 -116 -297 208 0 
-208 204 0 
-208 116 0 
-208 297 0 
207 208 204 -209 0 
-21 210 0 
-11 -238 22 0 
-22 11 0 
-22 238 0 
-16 -248 23 0 
-23 16 0 
-23 248 0 
22 23 21 -210 0 
-210 213 0 
-118 -239 211 0 
-211 118 0 
-211 239 0 
-164 -249 212 0 
-212 164 0 
-212 249 0 
211 212 210 -213 0 
-213 216 0 
-123 -240 214 0 
-214 123 0 
-214 240 0 
-169 -250 215 0 
-215 169 0 
-215 250 0 
214 215 213 -216 0 
-216 219 0 
-128 -241 217 0 
-217 128 0 
-217 241 0 
-174 -251 218 0 
-218 174 0 
-218 251 0 
217 218 216 -219 0 
-219 222 0 
-133 -242 220 0 
-220 133 0 
-220 242 0 
-179 -252 221 0 
-221 179 0 
-221 252 0 
220 221 219 -222 0 
-222 225 0 
-138 -243 223 0 
-223 138 0 
-223 243 0 
-184 -253 224 0 
-224 184 0 
-224 253 0 
223 224 222 -225 0 
-225 228 0 
-143 -244 226 0 
-226 143 0 
-226 244 0 
-189 -254 227 0 
-227 189 0 
-227 254 0 
226 227 225 -228 0 
-228 231 0 
-148 -245 229 0 
-229 148 0 
-229 245 0 
-194 -255 230 0 
-230 194 0 
-230 255 0 
229 230 228 -231 0 
-231 234 0 
-153 -246 232 0 
-232 153 0 
-232 246 0 
-199 -256 233 0 
-233 199 0 
-233 256 0 
232 233 231 -234 0 
-234 237 0 
-158 -247 235 0 
-235 158 0 
-235 247 0 
-204 -257 236 0 
-236 204 0 
-236 257 0 
235 236 234 -237 0 
-258 -268 0 
-258 -278 0 
-259 -269 0 
-259 -279 0 
-260 -270 0 
-260 -280 0 
-261 -271 0 
-261 -281 0 
-262 -272 0 
-262 -282 0 
-263 -273 0 
-263 -283 0 
-264 -274 0 
-264 -284 0 
-265 -275 0 
-265 -285 0 
-266 -276 0 
-266 -286 0 
-267 -277 0 
-267 -287 0 
-268 -278 0 
-268 -288 0 
-269 -279 0 
-269 -289 0 
-270 -280 0 
-270 -290 0 
-271 -281 0 
-271 -291 0 
-272 -282 0 
-272 -292 0 
-273 -283 0 
-273 -293 0 
-274 -284 0 
-274 -294 0 
-275 -285 0 
-275 -295 0 
-276 -286 0 
-276 -296 0 
-277 -287 0 
-277 -297 0 
-278 -288 0 
-279 -289 0 
-280 -290 0 
-281 -291 0 
-282 -292 0 
-283 -293 0 
-284 -294 0 
-285 -295 0 
-286 -296 0 
-287 -297 0 
